\ This file was automatically generated by Zimpl
\ var x1 >= 0;
\ var x2 >= 0;
\ maximize Z:     3*x1 + 2*x2;
\ subto c1:     1*x1 - 2*x2 <= 4;
\ subto c2:     -1*x1 + 1*x2 <= 1;
\ subto c3:     1*x1 - 1*x2 <= 5;
\Problem name: pp
Maximize
 Z:  +3 x1 +2 x2
Subject to
 c1_1:
  -2 x2 + x1 <= 4
 c2_1:
  + x2 - x1 <= 1
 c3_1:
  - x2 + x1 <= 5
Bounds
 0 <= x1 <= +inf
 0 <= x2 <= +inf
End
